Test: chnl10_13.cnf
Options: -no-inverting-opt -sym-var-bump
WARNING: for repeatability, setting FPU to use double precision
============================[ Problem Statistics ]=============================
|                                                                             |
|  Number of symmetries:           43                                         |
|  Number of invertingSyms:         0                                         |
|  Number of variables:           260                                         |
|  Number of clauses:            1586                                         |
|  Parse time:                   0.00 s                                       |
|                                                                             |
============================[ Search Statistics ]==============================
| Conflicts |          ORIGINAL         |          LEARNT          | Progress |
|           |    Vars  Clauses Literals |    Limit  Clauses Lit/Cl |          |
===============================================================================
|       100 |     260     1586     3380 |      581      227     32 |  0.001 % |
|       250 |     260     1586     3380 |      639      546     34 |  0.001 % |
|       475 |     260     1586     3380 |      703      622     34 |  0.001 % |
|       812 |     260     1586     3380 |      774      595     32 |  0.001 % |
|      1318 |     260     1586     3380 |      851      719     31 |  0.001 % |
|      2077 |     260     1586     3380 |      936      846     27 |  0.001 % |
|      3216 |     260     1586     3380 |     1030      590     25 |  0.001 % |
===============================================================================
restarts              : 16
conflicts             : 3256           (47880 /sec)
symconflicts          : 663            (9749 /sec)
decisions             : 5245           (0.00 % random) (77128 /sec)
propagations          : 69444          (1021175 /sec)
sympropagations       : 4386           (64496 /sec)
conflict literals     : 112916         (9.62 % deleted)
literals     : 112916         (9.62 % deleted)

HEURISTIC USAGES
random                : 0           
activity w/ lookahead : 0           
activity no lookahead : 0           
original sp           : 5245        
sym count             : 0           

Memory used           : 6.00 MB
CPU time              : 0.068004 s

UNSATISFIABLE
